c nIsolatedPIs 8
c maxPI 56
p cnf 231 526
c gate 57 11 39 0
11 -57 0
39 -57 0
-11 -39 57 0
c gate 58 -11 -39 0
-11 -58 0
-39 -58 0
11 39 58 0
c gate 59 10 38 0
10 -59 0
38 -59 0
-10 -38 59 0
c gate 60 9 37 0
9 -60 0
37 -60 0
-9 -37 60 0
c gate 61 -8 -36 0
-8 -61 0
-36 -61 0
8 36 61 0
c gate 62 -6 -34 0
-6 -62 0
-34 -62 0
6 34 62 0
c gate 63 -7 -35 0
-7 -63 0
-35 -63 0
7 35 63 0
c gate 64 -62 -63 0
-62 -64 0
-63 -64 0
62 63 64 0
c gate 65 5 33 0
5 -65 0
33 -65 0
-5 -33 65 0
c gate 66 6 34 0
6 -66 0
34 -66 0
-6 -34 66 0
c gate 67 -65 -66 0
-65 -67 0
-66 -67 0
65 66 67 0
c gate 68 64 -67 0
64 -68 0
-67 -68 0
-64 67 68 0
c gate 69 7 35 0
7 -69 0
35 -69 0
-7 -35 69 0
c gate 70 8 36 0
8 -70 0
36 -70 0
-8 -36 70 0
c gate 71 -69 -70 0
-69 -71 0
-70 -71 0
69 70 71 0
c gate 72 -68 71 0
-68 -72 0
71 -72 0
68 -71 72 0
c gate 73 -61 -72 0
-61 -73 0
-72 -73 0
61 72 73 0
c gate 74 -60 -73 0
-60 -74 0
-73 -74 0
60 73 74 0
c gate 75 -9 -37 0
-9 -75 0
-37 -75 0
9 37 75 0
c gate 76 -10 -38 0
-10 -76 0
-38 -76 0
10 38 76 0
c gate 77 -75 -76 0
-75 -77 0
-76 -77 0
75 76 77 0
c gate 78 -74 77 0
-74 -78 0
77 -78 0
74 -77 78 0
c gate 79 -59 -78 0
-59 -79 0
-78 -79 0
59 78 79 0
c gate 80 -58 -79 0
-58 -80 0
-79 -80 0
58 79 80 0
c gate 81 -57 -80 0
-57 -81 0
-80 -81 0
57 80 81 0
c gate 82 2 30 0
2 -82 0
30 -82 0
-2 -30 82 0
c gate 83 1 29 0
1 -83 0
29 -83 0
-1 -29 83 0
c gate 84 -82 -83 0
-82 -84 0
-83 -84 0
82 83 84 0
c gate 85 -3 -31 0
-3 -85 0
-31 -85 0
3 31 85 0
c gate 86 -2 -30 0
-2 -86 0
-30 -86 0
2 30 86 0
c gate 87 -85 -86 0
-85 -87 0
-86 -87 0
85 86 87 0
c gate 88 -84 87 0
-84 -88 0
87 -88 0
84 -87 88 0
c gate 89 3 31 0
3 -89 0
31 -89 0
-3 -31 89 0
c gate 90 4 32 0
4 -90 0
32 -90 0
-4 -32 90 0
c gate 91 -89 -90 0
-89 -91 0
-90 -91 0
89 90 91 0
c gate 92 -88 91 0
-88 -92 0
91 -92 0
88 -91 92 0
c gate 93 -5 -33 0
-5 -93 0
-33 -93 0
5 33 93 0
c gate 94 -4 -32 0
-4 -94 0
-32 -94 0
4 32 94 0
c gate 95 -61 -94 0
-61 -95 0
-94 -95 0
61 94 95 0
c gate 96 -93 95 0
-93 -96 0
95 -96 0
93 -95 96 0
c gate 97 64 96 0
64 -97 0
96 -97 0
-64 -96 97 0
c gate 98 -92 97 0
-92 -98 0
97 -98 0
92 -97 98 0
c gate 99 72 98 0
72 -99 0
98 -99 0
-72 -98 99 0
c gate 100 -60 -75 0
-60 -100 0
-75 -100 0
60 75 100 0
c gate 101 -58 -76 0
-58 -101 0
-76 -101 0
58 76 101 0
c gate 102 100 101 0
100 -102 0
101 -102 0
-100 -101 102 0
c gate 103 99 102 0
99 -103 0
102 -103 0
-99 -102 103 0
c gate 104 81 -103 0
81 -104 0
-103 -104 0
-81 103 104 0
c gate 105 12 40 0
12 -105 0
40 -105 0
-12 -40 105 0
c gate 106 -12 -40 0
-12 -106 0
-40 -106 0
12 40 106 0
c gate 107 -105 -106 0
-105 -107 0
-106 -107 0
105 106 107 0
c gate 108 -57 101 0
-57 -108 0
101 -108 0
57 -101 108 0
c gate 109 107 108 0
107 -109 0
108 -109 0
-107 -108 109 0
c gate 110 104 109 0
104 -110 0
109 -110 0
-104 -109 110 0
c gate 111 104 -105 0
104 -111 0
-105 -111 0
-104 105 111 0
c gate 112 13 41 0
13 -112 0
41 -112 0
-13 -41 112 0
c gate 113 -13 -41 0
-13 -113 0
-41 -113 0
13 41 113 0
c gate 114 -112 -113 0
-112 -114 0
-113 -114 0
112 113 114 0
c gate 115 -106 114 0
-106 -115 0
114 -115 0
106 -114 115 0
c gate 116 -111 115 0
-111 -116 0
115 -116 0
111 -115 116 0
c gate 117 -110 -116 0
-110 -117 0
-116 -117 0
110 116 117 0
c gate 118 57 -106 0
57 -118 0
-106 -118 0
-57 106 118 0
c gate 119 -105 -118 0
-105 -119 0
-118 -119 0
105 118 119 0
c gate 120 -109 119 0
-109 -120 0
119 -120 0
109 -119 120 0
c gate 121 114 -120 0
114 -121 0
-120 -121 0
-114 120 121 0
c gate 122 -117 -121 0
-117 -122 0
-121 -122 0
117 121 122 0
c gate 123 -110 -122 0
-110 -123 0
-122 -123 0
110 122 123 0
c gate 124 -59 100 0
-59 -124 0
100 -124 0
59 -100 124 0
c gate 125 108 124 0
108 -125 0
124 -125 0
-108 -124 125 0
c gate 126 99 -125 0
99 -126 0
-125 -126 0
-99 125 126 0
c gate 127 103 -107 0
103 -127 0
-107 -127 0
-103 107 127 0
c gate 128 81 127 0
81 -128 0
127 -128 0
-81 -127 128 0
c gate 129 -126 -128 0
-126 -129 0
-128 -129 0
126 128 129 0
c gate 130 99 129 0
99 -130 0
129 -130 0
-99 -129 130 0
c gate 131 14 42 0
14 -131 0
42 -131 0
-14 -42 131 0
c gate 132 -112 -131 0
-112 -132 0
-131 -132 0
112 131 132 0
c gate 133 -116 132 0
-116 -133 0
132 -133 0
116 -132 133 0
c gate 134 -16 -44 0
-16 -134 0
-44 -134 0
16 44 134 0
c gate 135 16 44 0
16 -135 0
44 -135 0
-16 -44 135 0
c gate 136 15 43 0
15 -136 0
43 -136 0
-15 -43 136 0
c gate 137 -135 -136 0
-135 -137 0
-136 -137 0
135 136 137 0
c gate 138 -134 -137 0
-134 -138 0
-137 -138 0
134 137 138 0
c gate 139 133 -138 0
133 -139 0
-138 -139 0
-133 138 139 0
c gate 140 -15 -43 0
-15 -140 0
-43 -140 0
15 43 140 0
c gate 141 -136 -140 0
-136 -141 0
-140 -141 0
136 140 141 0
c gate 142 -134 -135 0
-134 -142 0
-135 -142 0
134 135 142 0
c gate 143 -14 -42 0
-14 -143 0
-42 -143 0
14 42 143 0
c gate 144 142 -143 0
142 -144 0
-143 -144 0
-142 143 144 0
c gate 145 141 144 0
141 -145 0
144 -145 0
-141 -144 145 0
c gate 146 -138 -145 0
-138 -146 0
-145 -146 0
138 145 146 0
c gate 147 17 45 0
17 -147 0
45 -147 0
-17 -45 147 0
c gate 148 18 46 0
18 -148 0
46 -148 0
-18 -46 148 0
c gate 149 -147 -148 0
-147 -149 0
-148 -149 0
147 148 149 0
c gate 150 -20 -48 0
-20 -150 0
-48 -150 0
20 48 150 0
c gate 151 -17 -45 0
-17 -151 0
-45 -151 0
17 45 151 0
c gate 152 -150 -151 0
-150 -152 0
-151 -152 0
150 151 152 0
c gate 153 149 152 0
149 -153 0
152 -153 0
-149 -152 153 0
c gate 154 -18 -46 0
-18 -154 0
-46 -154 0
18 46 154 0
c gate 155 -19 -47 0
-19 -155 0
-47 -155 0
19 47 155 0
c gate 156 -154 -155 0
-154 -156 0
-155 -156 0
154 155 156 0
c gate 157 19 47 0
19 -157 0
47 -157 0
-19 -47 157 0
c gate 158 20 48 0
20 -158 0
48 -158 0
-20 -48 158 0
c gate 159 -157 -158 0
-157 -159 0
-158 -159 0
157 158 159 0
c gate 160 156 159 0
156 -160 0
159 -160 0
-156 -159 160 0
c gate 161 153 160 0
153 -161 0
160 -161 0
-153 -160 161 0
c gate 162 -146 161 0
-146 -162 0
161 -162 0
146 -161 162 0
c gate 163 -139 162 0
-139 -163 0
162 -163 0
139 -162 163 0
c gate 164 -149 156 0
-149 -164 0
156 -164 0
149 -156 164 0
c gate 165 159 -164 0
159 -165 0
-164 -165 0
-159 164 165 0
c gate 166 -150 -165 0
-150 -166 0
-165 -166 0
150 165 166 0
c gate 167 -163 -166 0
-163 -167 0
-166 -167 0
163 166 167 0
c gate 168 22 50 0
22 -168 0
50 -168 0
-22 -50 168 0
c gate 169 21 49 0
21 -169 0
49 -169 0
-21 -49 169 0
c gate 170 -168 -169 0
-168 -170 0
-169 -170 0
168 169 170 0
c gate 171 -24 -52 0
-24 -171 0
-52 -171 0
24 52 171 0
c gate 172 -21 -49 0
-21 -172 0
-49 -172 0
21 49 172 0
c gate 173 -171 -172 0
-171 -173 0
-172 -173 0
171 172 173 0
c gate 174 170 173 0
170 -174 0
173 -174 0
-170 -173 174 0
c gate 175 23 51 0
23 -175 0
51 -175 0
-23 -51 175 0
c gate 176 24 52 0
24 -176 0
52 -176 0
-24 -52 176 0
c gate 177 -175 -176 0
-175 -177 0
-176 -177 0
175 176 177 0
c gate 178 -22 -50 0
-22 -178 0
-50 -178 0
22 50 178 0
c gate 179 -23 -51 0
-23 -179 0
-51 -179 0
23 51 179 0
c gate 180 -178 -179 0
-178 -180 0
-179 -180 0
178 179 180 0
c gate 181 177 180 0
177 -181 0
180 -181 0
-177 -180 181 0
c gate 182 174 181 0
174 -182 0
181 -182 0
-174 -181 182 0
c gate 183 -167 182 0
-167 -183 0
182 -183 0
167 -182 183 0
c gate 184 -170 180 0
-170 -184 0
180 -184 0
170 -180 184 0
c gate 185 177 -184 0
177 -185 0
-184 -185 0
-177 184 185 0
c gate 186 -171 -185 0
-171 -186 0
-185 -186 0
171 185 186 0
c gate 187 -27 -55 0
-27 -187 0
-55 -187 0
27 55 187 0
c gate 188 27 55 0
27 -188 0
55 -188 0
-27 -55 188 0
c gate 189 -187 -188 0
-187 -189 0
-188 -189 0
187 188 189 0
c gate 190 -26 -54 0
-26 -190 0
-54 -190 0
26 54 190 0
c gate 191 26 54 0
26 -191 0
54 -191 0
-26 -54 191 0
c gate 192 -190 -191 0
-190 -192 0
-191 -192 0
190 191 192 0
c gate 193 189 192 0
189 -193 0
192 -193 0
-189 -192 193 0
c gate 194 28 -56 0
28 -194 0
-56 -194 0
-28 56 194 0
c gate 195 -28 56 0
-28 -195 0
56 -195 0
28 -56 195 0
c gate 196 -194 -195 0
-194 -196 0
-195 -196 0
194 195 196 0
c gate 197 25 -53 0
25 -197 0
-53 -197 0
-25 53 197 0
c gate 198 -25 53 0
-25 -198 0
53 -198 0
25 -53 198 0
c gate 199 -197 -198 0
-197 -199 0
-198 -199 0
197 198 199 0
c gate 200 -196 -199 0
-196 -200 0
-199 -200 0
196 199 200 0
c gate 201 193 200 0
193 -201 0
200 -201 0
-193 -200 201 0
c gate 202 186 201 0
186 -202 0
201 -202 0
-186 -201 202 0
c gate 203 -183 -202 0
-183 -203 0
-202 -203 0
183 202 203 0
c gate 204 139 145 0
139 -204 0
145 -204 0
-139 -145 204 0
c gate 205 123 -130 0
123 -205 0
-130 -205 0
-123 130 205 0
c gate 206 -133 -143 0
-133 -206 0
-143 -206 0
133 143 206 0
c gate 207 -121 132 0
-121 -207 0
132 -207 0
121 -132 207 0
c gate 208 144 -207 0
144 -208 0
-207 -208 0
-144 207 208 0
c gate 209 -206 -208 0
-206 -209 0
-208 -209 0
206 208 209 0
c gate 210 -142 207 0
-142 -210 0
207 -210 0
142 -207 210 0
c gate 211 206 -210 0
206 -211 0
-210 -211 0
-206 210 211 0
c gate 212 141 -211 0
141 -212 0
-211 -212 0
-141 211 212 0
c gate 213 -209 212 0
-209 -213 0
212 -213 0
209 -212 213 0
c gate 214 -205 -213 0
-205 -214 0
-213 -214 0
205 213 214 0
c gate 215 -204 -214 0
-204 -215 0
-214 -215 0
204 214 215 0
c gate 216 -162 -215 0
-162 -216 0
-215 -216 0
162 215 216 0
c gate 217 -166 -182 0
-166 -217 0
-182 -217 0
166 182 217 0
c gate 218 163 -217 0
163 -218 0
-217 -218 0
-163 217 218 0
c gate 219 -216 -218 0
-216 -219 0
-218 -219 0
216 218 219 0
c gate 220 -99 123 0
-99 -220 0
123 -220 0
99 -123 220 0
c gate 221 -214 -220 0
-214 -221 0
-220 -221 0
214 220 221 0
c gate 222 -163 -204 0
-163 -222 0
-204 -222 0
163 204 222 0
c gate 223 -221 222 0
-221 -223 0
222 -223 0
221 -222 223 0
c gate 224 219 -223 0
219 -224 0
-223 -224 0
-219 223 224 0
c gate 225 203 -224 0
203 -225 0
-224 -225 0
-203 224 225 0
c gate 226 -130 -225 0
-130 -226 0
-225 -226 0
130 225 226 0
c gate 227 129 225 0
129 -227 0
225 -227 0
-129 -225 227 0
c gate 228 -226 -227 0
-226 -228 0
-227 -228 0
226 227 228 0
c gate 229 -123 228 0
-123 -229 0
228 -229 0
123 -228 229 0
c gate 230 123 -228 0
123 -230 0
-228 -230 0
-123 228 230 0
c gate 231 -229 -230 0
-229 -231 0
-230 -231 0
229 230 231 0
c PO
231 0
